<number of tasks>
35

<cycle time>
69

<task times>
1 29
2 3
3 5
4 22
5 6
6 14
7 2
8 5
9 22
10 30
11 23
12 30
13 23
14 2
15 19
16 29
17 2
18 2
19 19
20 29
21 6
22 10
23 16
24 23
25 5
26 5
27 5
28 40
29 2
30 5
31 5
32 1
33 40
34 2
35 2

<precedence relations>
1,2
1,5
1,10
1,12
2,3
3,4
4,11
5,6
6,7
6,8
7,14
7,18
8,9
9,13
10,14
11,28
11,33
12,18
13,28
13,33
14,15
15,16
16,21
17,20
18,19
19,20
20,21
21,22
21,25
21,30
22,23
23,24
24,27
25,26
26,27
27,28
27,33
27,34
28,29
30,31
31,32
32,33
33,35

<setup times forward>
1,2:5
1,5:1
1,10:2
1,12:1
1,17:5
2,3:7
2,5:4
2,6:8
2,7:5
2,8:9
2,9:2
2,10:7
2,12:6
2,13:3
2,14:1
2,15:12
2,16:11
2,18:6
2,19:4
2,20:1
2,21:1
2,22:9
2,23:2
2,24:6
2,25:7
2,26:10
2,27:12
2,30:5
2,31:1
2,34:5
3,4:4
3,5:3
3,6:1
3,7:2
3,8:2
3,9:5
3,12:1
3,13:4
3,14:6
3,15:5
3,16:4
3,17:7
3,18:1
3,19:3
3,20:6
3,21:6
3,22:2
3,23:5
3,24:1
3,26:3
3,27:5
3,30:2
3,31:6
3,32:7
3,34:2
4,5:1
4,6:5
4,7:2
4,8:6
4,9:1
4,10:4
4,11:8
4,12:3
4,14:2
4,15:9
4,16:8
4,17:3
4,18:3
4,19:1
4,20:2
4,21:2
4,22:6
4,23:1
4,24:3
4,25:4
4,26:7
4,27:9
4,30:2
4,31:2
4,32:3
4,34:2
5,2:4
5,3:3
5,4:1
5,6:4
5,10:3
5,11:7
5,12:2
5,17:4
6,2:8
6,3:1
6,4:5
6,7:3
6,8:1
6,10:1
6,11:3
6,12:2
6,17:8
7,2:5
7,3:2
7,4:2
7,8:4
7,9:3
7,10:2
7,11:6
7,12:1
7,13:2
7,14:4
7,17:5
7,18:1
8,2:9
8,3:2
8,4:6
8,7:4
8,9:7
8,10:2
8,11:2
8,12:3
8,14:8
8,15:3
8,16:2
8,17:9
8,18:3
8,19:5
8,20:8
8,21:8
8,23:7
8,24:3
8,25:2
8,26:1
8,27:3
8,30:4
8,31:8
8,32:9
8,34:4
9,2:2
9,3:5
9,4:1
9,7:3
9,10:5
9,11:9
9,12:4
9,13:1
9,14:1
9,15:10
9,16:9
9,17:2
9,18:4
9,19:2
9,20:1
9,21:1
9,22:7
9,24:4
9,25:5
9,26:8
9,27:10
9,30:3
9,31:1
9,32:2
9,34:3
10,2:7
10,4:4
10,5:3
10,6:1
10,7:2
10,8:2
10,9:5
10,11:4
10,12:1
10,13:4
10,14:6
10,17:7
10,18:1
10,19:3
10,20:6
11,5:7
11,6:3
11,7:6
11,8:2
11,9:9
11,10:4
11,12:5
11,13:8
11,14:10
11,15:1
11,17:11
11,18:5
11,19:7
11,20:10
11,21:10
11,22:2
11,23:9
11,24:5
11,25:4
11,26:1
11,27:1
11,28:7
11,30:6
11,31:10
11,32:11
11,33:6
11,34:6
12,2:6
12,3:1
12,4:3
12,5:2
12,6:2
12,7:1
12,8:3
12,9:4
12,10:1
12,11:5
12,13:3
12,14:5
12,15:6
12,16:5
12,17:6
13,2:3
13,3:4
13,7:2
13,10:4
13,11:8
13,12:3
13,14:2
13,15:9
13,16:8
13,17:3
13,18:3
13,19:1
13,20:2
13,21:2
13,22:6
13,23:1
13,24:3
13,25:4
13,26:7
13,27:9
13,28:1
13,30:2
13,31:2
13,32:3
13,33:2
13,34:2
14,2:1
14,3:6
14,4:2
14,8:8
14,9:1
14,11:10
14,12:5
14,13:2
14,15:11
14,17:1
14,18:5
14,19:3
15,2:12
15,3:5
15,4:9
15,8:3
15,9:10
15,11:1
15,12:6
15,13:9
15,16:1
15,17:12
15,18:6
15,19:8
15,20:11
16,2:11
16,3:4
16,4:8
16,8:2
16,9:9
16,12:5
16,13:8
16,17:11
16,18:5
16,19:7
16,20:10
16,21:10
17,1:5
17,3:7
17,4:3
17,5:4
17,6:8
17,7:5
17,8:9
17,9:2
17,10:7
17,11:11
17,12:6
17,13:3
17,14:1
17,15:12
17,16:11
17,18:6
17,19:4
17,20:1
18,2:6
18,3:1
18,4:3
18,8:3
18,9:4
18,10:1
18,11:5
18,13:3
18,14:5
18,15:6
18,16:5
18,17:6
18,19:2
19,2:4
19,3:3
19,4:1
19,8:5
19,9:2
19,10:3
19,11:7
19,13:1
19,14:3
19,15:8
19,16:7
19,17:4
19,20:3
20,2:1
20,3:6
20,4:2
20,8:8
20,9:1
20,10:6
20,11:10
20,13:2
20,15:11
20,16:10
21,2:1
21,3:6
21,4:2
21,8:8
21,9:1
21,11:10
21,13:2
21,22:8
21,25:6
21,30:4
22,2:9
22,3:2
22,4:6
22,9:7
22,11:2
22,13:6
22,23:7
22,25:2
22,26:1
22,30:4
22,31:8
22,32:9
23,2:2
23,3:5
23,4:1
23,8:7
23,11:9
23,13:1
23,24:4
23,25:5
23,26:8
23,30:3
23,31:1
23,32:2
24,2:6
24,3:1
24,4:3
24,8:3
24,9:4
24,11:5
24,13:3
24,25:1
24,26:4
24,27:6
24,30:1
24,31:5
24,32:6
25,2:7
25,4:4
25,8:2
25,9:5
25,11:4
25,13:4
25,22:2
25,23:5
25,24:1
25,26:3
25,30:2
25,31:6
25,32:7
26,2:10
26,3:3
26,4:7
26,8:1
26,9:8
26,11:1
26,13:7
26,22:1
26,23:8
26,24:4
26,27:2
26,30:5
26,31:9
26,32:10
27,2:12
27,3:5
27,4:9
27,8:3
27,9:10
27,11:1
27,13:9
27,28:8
27,30:7
27,31:11
27,32:12
27,33:7
27,34:7
28,29:7
28,30:1
28,31:3
28,32:4
28,33:1
28,34:1
28,35:8
29,30:6
29,31:10
29,32:11
29,33:6
29,34:6
29,35:1
30,2:5
30,3:2
30,4:2
30,8:4
30,9:3
30,11:6
30,13:2
30,22:4
30,23:3
30,24:1
30,25:2
30,26:5
30,27:7
30,28:1
30,29:6
30,31:4
31,2:1
31,3:6
31,4:2
31,8:8
31,9:1
31,11:10
31,13:2
31,22:8
31,23:1
31,24:5
31,25:6
31,26:9
31,27:11
31,28:3
31,29:10
31,32:1
31,34:4
32,3:7
32,4:3
32,8:9
32,9:2
32,11:11
32,13:3
32,22:9
32,23:2
32,24:6
32,25:7
32,26:10
32,27:12
32,28:4
32,29:11
32,33:5
32,34:5
33,28:1
33,29:6
33,35:7
34,2:5
34,3:2
34,4:2
34,8:4
34,9:3
34,11:6
34,13:2
34,28:1
34,29:6
34,31:4
34,32:5
34,35:7
35,28:8
35,29:1
35,34:7

<setup times backward>
1,1:13
1,17:8
2,1:18
2,2:13
2,5:17
2,6:21
2,7:18
2,8:22
2,9:15
2,10:20
2,12:19
2,13:16
2,14:14
2,15:25
2,16:24
2,17:13
2,18:19
2,19:17
2,20:14
2,21:14
2,22:22
2,23:15
2,24:19
2,25:20
2,26:23
2,27:25
2,30:18
2,31:14
2,32:13
2,34:18
3,1:11
3,2:6
3,3:13
3,5:10
3,6:14
3,7:11
3,8:15
3,9:8
3,10:13
3,12:12
3,13:9
3,14:7
3,15:18
3,16:17
3,17:6
3,18:12
3,19:10
3,20:7
3,21:7
3,22:15
3,23:8
3,24:12
3,25:13
3,26:16
3,27:18
3,30:11
3,31:7
3,32:6
3,34:11
4,1:15
4,2:10
4,3:17
4,4:13
4,5:14
4,6:18
4,7:15
4,8:19
4,9:12
4,10:17
4,12:16
4,13:13
4,14:11
4,15:22
4,16:21
4,17:10
4,18:16
4,19:14
4,20:11
4,21:11
4,22:19
4,23:12
4,24:16
4,25:17
4,26:20
4,27:22
4,30:15
4,31:11
4,32:10
4,34:15
5,1:14
5,2:9
5,3:16
5,4:12
5,5:13
5,10:16
5,11:20
5,12:15
5,17:9
6,1:10
6,2:5
6,3:12
6,4:8
6,5:9
6,6:13
6,10:12
6,11:16
6,12:11
6,17:5
7,1:13
7,2:8
7,3:15
7,4:11
7,5:12
7,6:16
7,7:13
7,8:17
7,9:10
7,10:15
7,11:19
7,12:14
7,13:11
7,17:8
8,1:9
8,2:4
8,3:11
8,4:7
8,5:8
8,6:12
8,7:9
8,8:13
8,10:11
8,11:15
8,12:10
8,14:5
8,15:16
8,16:15
8,17:4
8,18:10
8,19:8
8,20:5
8,21:5
8,22:13
8,23:6
8,24:10
8,25:11
8,26:14
8,27:16
8,30:9
8,31:5
8,32:4
8,34:9
9,1:16
9,2:11
9,3:18
9,4:14
9,5:15
9,6:19
9,7:16
9,8:20
9,9:13
9,10:18
9,11:22
9,12:17
9,14:12
9,15:23
9,16:22
9,17:11
9,18:17
9,19:15
9,20:12
9,21:12
9,22:20
9,23:13
9,24:17
9,25:18
9,26:21
9,27:23
9,30:16
9,31:12
9,32:11
9,34:16
10,1:11
10,2:6
10,3:13
10,4:9
10,5:10
10,6:14
10,7:11
10,8:15
10,9:8
10,10:13
10,11:17
10,12:12
10,13:9
10,17:6
10,18:12
10,19:10
10,20:7
11,1:7
11,2:2
11,3:9
11,4:5
11,5:6
11,6:10
11,7:7
11,8:11
11,9:4
11,10:9
11,11:13
11,12:8
11,13:5
11,14:3
11,15:14
11,16:13
11,17:2
11,18:8
11,19:6
11,20:3
11,21:3
11,22:11
11,23:4
11,24:8
11,25:9
11,26:12
11,27:14
11,30:7
11,31:3
11,32:2
11,34:7
12,1:12
12,2:7
12,3:14
12,4:10
12,5:11
12,6:15
12,7:12
12,8:16
12,9:9
12,10:14
12,11:18
12,12:13
12,13:10
12,14:8
12,15:19
12,16:18
12,17:7
13,1:15
13,2:10
13,3:17
13,4:13
13,5:14
13,6:18
13,7:15
13,8:19
13,9:12
13,10:17
13,11:21
13,12:16
13,13:13
13,14:11
13,15:22
13,16:21
13,17:10
13,18:16
13,19:14
13,20:11
13,21:11
13,22:19
13,23:12
13,24:16
13,25:17
13,26:20
13,27:22
13,30:15
13,31:11
13,32:10
13,34:15
14,1:17
14,2:12
14,3:19
14,4:15
14,5:16
14,6:20
14,7:17
14,8:21
14,9:14
14,10:19
14,11:23
14,12:18
14,13:15
14,14:13
14,17:12
14,18:18
14,19:16
14,20:13
15,1:6
15,2:1
15,3:8
15,4:4
15,5:5
15,6:9
15,7:6
15,8:10
15,9:3
15,10:8
15,11:12
15,12:7
15,13:4
15,14:2
15,15:13
15,17:1
15,18:7
15,19:5
15,20:2
16,1:7
16,2:2
16,3:9
16,4:5
16,5:6
16,6:10
16,7:7
16,8:11
16,9:4
16,10:9
16,11:13
16,12:8
16,13:5
16,14:3
16,15:14
16,16:13
16,17:2
16,18:8
16,19:6
16,20:3
17,1:18
17,2:13
17,3:20
17,4:16
17,5:17
17,6:21
17,7:18
17,8:22
17,9:15
17,10:20
17,11:24
17,12:19
17,13:16
17,14:14
17,15:25
17,16:24
17,17:13
17,18:19
17,19:17
18,1:12
18,2:7
18,3:14
18,4:10
18,5:11
18,6:15
18,7:12
18,8:16
18,9:9
18,10:14
18,11:18
18,12:13
18,13:10
18,14:8
18,15:19
18,16:18
18,17:7
18,18:13
19,1:14
19,2:9
19,3:16
19,4:12
19,5:13
19,6:17
19,7:14
19,8:18
19,9:11
19,10:16
19,11:20
19,12:15
19,13:12
19,14:10
19,15:21
19,16:20
19,17:9
19,18:15
19,19:13
20,1:17
20,2:12
20,3:19
20,4:15
20,5:16
20,6:20
20,7:17
20,8:21
20,9:14
20,10:19
20,11:23
20,12:18
20,13:15
20,14:13
20,15:24
20,16:23
20,17:12
20,18:18
20,19:16
20,20:13
21,1:17
21,2:12
21,3:19
21,4:15
21,5:16
21,6:20
21,7:17
21,8:21
21,9:14
21,10:19
21,11:23
21,12:18
21,13:15
21,14:13
21,15:24
21,16:23
21,17:12
21,18:18
21,19:16
21,20:13
21,21:13
22,1:9
22,2:4
22,3:11
22,4:7
22,5:8
22,6:12
22,7:9
22,8:13
22,9:6
22,10:11
22,11:15
22,12:10
22,13:7
22,14:5
22,15:16
22,16:15
22,17:4
22,18:10
22,19:8
22,20:5
22,21:5
22,22:13
22,25:11
22,26:14
22,30:9
22,31:5
22,32:4
23,1:16
23,2:11
23,3:18
23,4:14
23,5:15
23,6:19
23,7:16
23,8:20
23,9:13
23,10:18
23,11:22
23,12:17
23,13:14
23,14:12
23,15:23
23,16:22
23,17:11
23,18:17
23,19:15
23,20:12
23,21:12
23,22:20
23,23:13
23,25:18
23,26:21
23,30:16
23,31:12
23,32:11
24,1:12
24,2:7
24,3:14
24,4:10
24,5:11
24,6:15
24,7:12
24,8:16
24,9:9
24,10:14
24,11:18
24,12:13
24,13:10
24,14:8
24,15:19
24,16:18
24,17:7
24,18:13
24,19:11
24,20:8
24,21:8
24,22:16
24,23:9
24,24:13
24,25:14
24,26:17
24,30:12
24,31:8
24,32:7
25,1:11
25,2:6
25,3:13
25,4:9
25,5:10
25,6:14
25,7:11
25,8:15
25,9:8
25,10:13
25,11:17
25,12:12
25,13:9
25,14:7
25,15:18
25,16:17
25,17:6
25,18:12
25,19:10
25,20:7
25,21:7
25,22:15
25,23:8
25,24:12
25,25:13
25,30:11
25,31:7
25,32:6
26,1:8
26,2:3
26,3:10
26,4:6
26,5:7
26,6:11
26,7:8
26,8:12
26,9:5
26,10:10
26,11:14
26,12:9
26,13:6
26,14:4
26,15:15
26,16:14
26,17:3
26,18:9
26,19:7
26,20:4
26,21:4
26,22:12
26,23:5
26,24:9
26,25:10
26,26:13
26,30:8
26,31:4
26,32:3
27,1:6
27,2:1
27,3:8
27,4:4
27,5:5
27,6:9
27,7:6
27,8:10
27,9:3
27,10:8
27,11:12
27,12:7
27,13:4
27,14:2
27,15:13
27,16:12
27,17:1
27,18:7
27,19:5
27,20:2
27,21:2
27,22:10
27,23:3
27,24:7
27,25:8
27,26:11
27,27:13
27,30:6
27,31:2
27,32:1
28,1:14
28,2:9
28,3:16
28,4:12
28,5:13
28,6:17
28,7:14
28,8:18
28,9:11
28,10:16
28,11:20
28,12:15
28,13:12
28,14:10
28,15:21
28,16:20
28,17:9
28,18:15
28,19:13
28,20:10
28,21:10
28,22:18
28,23:11
28,24:15
28,25:16
28,26:19
28,27:21
28,28:13
28,30:14
28,31:10
28,32:9
28,33:14
28,34:14
28,35:21
29,1:7
29,2:2
29,3:9
29,4:5
29,5:6
29,6:10
29,7:7
29,8:11
29,9:4
29,10:9
29,11:13
29,12:8
29,13:5
29,14:3
29,15:14
29,16:13
29,17:2
29,18:8
29,19:6
29,20:3
29,21:3
29,22:11
29,23:4
29,24:8
29,25:9
29,26:12
29,27:14
29,28:6
29,29:13
29,30:7
29,31:3
29,32:2
29,33:7
29,34:7
29,35:14
30,1:13
30,2:8
30,3:15
30,4:11
30,5:12
30,6:16
30,7:13
30,8:17
30,9:10
30,10:15
30,11:19
30,12:14
30,13:11
30,14:9
30,15:20
30,16:19
30,17:8
30,18:14
30,19:12
30,20:9
30,21:9
30,22:17
30,23:10
30,24:14
30,25:15
30,26:18
30,27:20
30,28:12
30,29:19
30,30:13
30,34:13
31,1:17
31,2:12
31,3:19
31,4:15
31,5:16
31,6:20
31,7:17
31,8:21
31,9:14
31,10:19
31,11:23
31,12:18
31,13:15
31,14:13
31,15:24
31,16:23
31,17:12
31,18:18
31,19:16
31,20:13
31,21:13
31,22:21
31,23:14
31,24:18
31,25:19
31,26:22
31,27:24
31,28:16
31,29:23
31,30:17
31,31:13
31,34:17
32,1:18
32,2:13
32,3:20
32,4:16
32,5:17
32,6:21
32,7:18
32,8:22
32,9:15
32,10:20
32,11:24
32,12:19
32,13:16
32,14:14
32,15:25
32,16:24
32,17:13
32,18:19
32,19:17
32,20:14
32,21:14
32,22:22
32,23:15
32,24:19
32,25:20
32,26:23
32,27:25
32,28:17
32,29:24
32,30:18
32,31:14
32,32:13
32,34:18
33,1:13
33,2:8
33,3:15
33,4:11
33,5:12
33,6:16
33,7:13
33,8:17
33,9:10
33,10:15
33,11:19
33,12:14
33,13:11
33,14:9
33,15:20
33,16:19
33,17:8
33,18:14
33,19:12
33,20:9
33,21:9
33,22:17
33,23:10
33,24:14
33,25:15
33,26:18
33,27:20
33,28:12
33,29:19
33,30:13
33,31:9
33,32:8
33,33:13
33,34:13
34,1:13
34,2:8
34,3:15
34,4:11
34,5:12
34,6:16
34,7:13
34,8:17
34,9:10
34,10:15
34,11:19
34,12:14
34,13:11
34,14:9
34,15:20
34,16:19
34,17:8
34,18:14
34,19:12
34,20:9
34,21:9
34,22:17
34,23:10
34,24:14
34,25:15
34,26:18
34,27:20
34,28:12
34,29:19
34,30:13
34,31:9
34,32:8
34,33:13
34,34:13
34,35:20
35,1:6
35,2:1
35,3:8
35,4:4
35,5:5
35,6:9
35,7:6
35,8:10
35,9:3
35,10:8
35,11:12
35,12:7
35,13:4
35,14:2
35,15:13
35,16:12
35,17:1
35,18:7
35,19:5
35,20:2
35,21:2
35,22:10
35,23:3
35,24:7
35,25:8
35,26:11
35,27:13
35,28:5
35,29:12
35,30:6
35,31:2
35,32:1
35,33:6
35,34:6
35,35:13

<end>

<optimal SALBP-1 value>
8


<rand seed>
467321153

